
Gurobi 6.5.0 (linux64) logging started Mon Apr 11 21:31:30 2016


Gurobi 6.5.0 (linux64) logging started Mon Apr 11 21:32:16 2016


Gurobi 6.5.0 (linux64) logging started Mon Apr 11 21:37:07 2016


Gurobi 6.5.0 (linux64) logging started Mon Apr 11 21:37:15 2016


Gurobi 6.5.0 (linux64) logging started Mon Apr 11 21:38:59 2016


Gurobi 6.5.0 (linux64) logging started Mon Apr 11 21:39:36 2016


Gurobi 6.5.0 (linux64) logging started Mon Apr 11 21:40:39 2016


Gurobi 6.5.0 (linux64) logging started Mon Apr 11 21:41:02 2016


Gurobi 6.5.0 (linux64) logging started Mon Apr 11 21:42:12 2016


Gurobi 6.5.0 (linux64) logging started Mon Apr 11 21:42:30 2016


Gurobi 6.5.0 (linux64) logging started Mon Apr 11 21:43:00 2016


Gurobi 6.5.0 (linux64) logging started Mon Apr 11 21:44:15 2016


Gurobi 6.5.0 (linux64) logging started Tue Apr 12 10:35:15 2016


Gurobi 6.5.0 (linux64) logging started Tue Apr 12 10:43:59 2016


Gurobi 6.5.0 (linux64) logging started Tue Apr 12 10:55:38 2016


Gurobi 6.5.0 (linux64) logging started Tue Apr 12 10:58:18 2016


Gurobi 6.5.0 (linux64) logging started Tue Apr 12 11:00:56 2016

Warning: model has pending changes.
File 'rebalance.lp' does not contain these changes.

Gurobi 6.5.0 (linux64) logging started Tue Apr 12 11:03:53 2016

